88 22 19 71 61 57 44 56 73 7 5 8 66 
62 90 99 92 16 26 36 50 1 34 27 40 83 76 15 
68 47 93 74 46 70 48 58 14 32 72 25 6 33 77 31 87 
2 63 18 82 100 75 69 78 12 39 28 95 24 23 17 65 30 35 45 85 21 79 86 91 89 54 
67 43 55 52 4 20 98 84 94 81 42 37 59 13 11 80 64 41 
97 49 96 3 51 10 60 38 29 53 9 
